c *********************************
c * Circuit generated by BenCGen
c *
c * RippleCarryAdderSubtractor_104_104_104_OutSunT
c *
c * Ports with 1 gate(s): 2
c * Ports with 2 gate(s): 626
c * Total gates: 628
c *********************************
p cnf 836 2195
1 315 0
-1 -315 0
1 -314 0
315 -314 0
-1 -315 314 0
314 316 0
-314 -316 0
105 314 -317 0
-105 314 317 0
105 -314 317 0
-105 -314 -317 0
106 314 -318 0
-106 314 318 0
106 -314 318 0
-106 -314 -318 0
107 314 -319 0
-107 314 319 0
107 -314 319 0
-107 -314 -319 0
108 314 -320 0
-108 314 320 0
108 -314 320 0
-108 -314 -320 0
109 314 -321 0
-109 314 321 0
109 -314 321 0
-109 -314 -321 0
110 314 -322 0
-110 314 322 0
110 -314 322 0
-110 -314 -322 0
111 314 -323 0
-111 314 323 0
111 -314 323 0
-111 -314 -323 0
112 314 -324 0
-112 314 324 0
112 -314 324 0
-112 -314 -324 0
113 314 -325 0
-113 314 325 0
113 -314 325 0
-113 -314 -325 0
114 314 -326 0
-114 314 326 0
114 -314 326 0
-114 -314 -326 0
115 314 -327 0
-115 314 327 0
115 -314 327 0
-115 -314 -327 0
116 314 -328 0
-116 314 328 0
116 -314 328 0
-116 -314 -328 0
117 314 -329 0
-117 314 329 0
117 -314 329 0
-117 -314 -329 0
118 314 -330 0
-118 314 330 0
118 -314 330 0
-118 -314 -330 0
119 314 -331 0
-119 314 331 0
119 -314 331 0
-119 -314 -331 0
120 314 -332 0
-120 314 332 0
120 -314 332 0
-120 -314 -332 0
121 314 -333 0
-121 314 333 0
121 -314 333 0
-121 -314 -333 0
122 314 -334 0
-122 314 334 0
122 -314 334 0
-122 -314 -334 0
123 314 -335 0
-123 314 335 0
123 -314 335 0
-123 -314 -335 0
124 314 -336 0
-124 314 336 0
124 -314 336 0
-124 -314 -336 0
125 314 -337 0
-125 314 337 0
125 -314 337 0
-125 -314 -337 0
126 314 -338 0
-126 314 338 0
126 -314 338 0
-126 -314 -338 0
127 314 -339 0
-127 314 339 0
127 -314 339 0
-127 -314 -339 0
128 314 -340 0
-128 314 340 0
128 -314 340 0
-128 -314 -340 0
129 314 -341 0
-129 314 341 0
129 -314 341 0
-129 -314 -341 0
130 314 -342 0
-130 314 342 0
130 -314 342 0
-130 -314 -342 0
131 314 -343 0
-131 314 343 0
131 -314 343 0
-131 -314 -343 0
132 314 -344 0
-132 314 344 0
132 -314 344 0
-132 -314 -344 0
133 314 -345 0
-133 314 345 0
133 -314 345 0
-133 -314 -345 0
134 314 -346 0
-134 314 346 0
134 -314 346 0
-134 -314 -346 0
135 314 -347 0
-135 314 347 0
135 -314 347 0
-135 -314 -347 0
136 314 -348 0
-136 314 348 0
136 -314 348 0
-136 -314 -348 0
137 314 -349 0
-137 314 349 0
137 -314 349 0
-137 -314 -349 0
138 314 -350 0
-138 314 350 0
138 -314 350 0
-138 -314 -350 0
139 314 -351 0
-139 314 351 0
139 -314 351 0
-139 -314 -351 0
140 314 -352 0
-140 314 352 0
140 -314 352 0
-140 -314 -352 0
141 314 -353 0
-141 314 353 0
141 -314 353 0
-141 -314 -353 0
142 314 -354 0
-142 314 354 0
142 -314 354 0
-142 -314 -354 0
143 314 -355 0
-143 314 355 0
143 -314 355 0
-143 -314 -355 0
144 314 -356 0
-144 314 356 0
144 -314 356 0
-144 -314 -356 0
145 314 -357 0
-145 314 357 0
145 -314 357 0
-145 -314 -357 0
146 314 -358 0
-146 314 358 0
146 -314 358 0
-146 -314 -358 0
147 314 -359 0
-147 314 359 0
147 -314 359 0
-147 -314 -359 0
148 314 -360 0
-148 314 360 0
148 -314 360 0
-148 -314 -360 0
149 314 -361 0
-149 314 361 0
149 -314 361 0
-149 -314 -361 0
150 314 -362 0
-150 314 362 0
150 -314 362 0
-150 -314 -362 0
151 314 -363 0
-151 314 363 0
151 -314 363 0
-151 -314 -363 0
152 314 -364 0
-152 314 364 0
152 -314 364 0
-152 -314 -364 0
153 314 -365 0
-153 314 365 0
153 -314 365 0
-153 -314 -365 0
154 314 -366 0
-154 314 366 0
154 -314 366 0
-154 -314 -366 0
155 314 -367 0
-155 314 367 0
155 -314 367 0
-155 -314 -367 0
156 314 -368 0
-156 314 368 0
156 -314 368 0
-156 -314 -368 0
157 314 -369 0
-157 314 369 0
157 -314 369 0
-157 -314 -369 0
158 314 -370 0
-158 314 370 0
158 -314 370 0
-158 -314 -370 0
159 314 -371 0
-159 314 371 0
159 -314 371 0
-159 -314 -371 0
160 314 -372 0
-160 314 372 0
160 -314 372 0
-160 -314 -372 0
161 314 -373 0
-161 314 373 0
161 -314 373 0
-161 -314 -373 0
162 314 -374 0
-162 314 374 0
162 -314 374 0
-162 -314 -374 0
163 314 -375 0
-163 314 375 0
163 -314 375 0
-163 -314 -375 0
164 314 -376 0
-164 314 376 0
164 -314 376 0
-164 -314 -376 0
165 314 -377 0
-165 314 377 0
165 -314 377 0
-165 -314 -377 0
166 314 -378 0
-166 314 378 0
166 -314 378 0
-166 -314 -378 0
167 314 -379 0
-167 314 379 0
167 -314 379 0
-167 -314 -379 0
168 314 -380 0
-168 314 380 0
168 -314 380 0
-168 -314 -380 0
169 314 -381 0
-169 314 381 0
169 -314 381 0
-169 -314 -381 0
170 314 -382 0
-170 314 382 0
170 -314 382 0
-170 -314 -382 0
171 314 -383 0
-171 314 383 0
171 -314 383 0
-171 -314 -383 0
172 314 -384 0
-172 314 384 0
172 -314 384 0
-172 -314 -384 0
173 314 -385 0
-173 314 385 0
173 -314 385 0
-173 -314 -385 0
174 314 -386 0
-174 314 386 0
174 -314 386 0
-174 -314 -386 0
175 314 -387 0
-175 314 387 0
175 -314 387 0
-175 -314 -387 0
176 314 -388 0
-176 314 388 0
176 -314 388 0
-176 -314 -388 0
177 314 -389 0
-177 314 389 0
177 -314 389 0
-177 -314 -389 0
178 314 -390 0
-178 314 390 0
178 -314 390 0
-178 -314 -390 0
179 314 -391 0
-179 314 391 0
179 -314 391 0
-179 -314 -391 0
180 314 -392 0
-180 314 392 0
180 -314 392 0
-180 -314 -392 0
181 314 -393 0
-181 314 393 0
181 -314 393 0
-181 -314 -393 0
182 314 -394 0
-182 314 394 0
182 -314 394 0
-182 -314 -394 0
183 314 -395 0
-183 314 395 0
183 -314 395 0
-183 -314 -395 0
184 314 -396 0
-184 314 396 0
184 -314 396 0
-184 -314 -396 0
185 314 -397 0
-185 314 397 0
185 -314 397 0
-185 -314 -397 0
186 314 -398 0
-186 314 398 0
186 -314 398 0
-186 -314 -398 0
187 314 -399 0
-187 314 399 0
187 -314 399 0
-187 -314 -399 0
188 314 -400 0
-188 314 400 0
188 -314 400 0
-188 -314 -400 0
189 314 -401 0
-189 314 401 0
189 -314 401 0
-189 -314 -401 0
190 314 -402 0
-190 314 402 0
190 -314 402 0
-190 -314 -402 0
191 314 -403 0
-191 314 403 0
191 -314 403 0
-191 -314 -403 0
192 314 -404 0
-192 314 404 0
192 -314 404 0
-192 -314 -404 0
193 314 -405 0
-193 314 405 0
193 -314 405 0
-193 -314 -405 0
194 314 -406 0
-194 314 406 0
194 -314 406 0
-194 -314 -406 0
195 314 -407 0
-195 314 407 0
195 -314 407 0
-195 -314 -407 0
196 314 -408 0
-196 314 408 0
196 -314 408 0
-196 -314 -408 0
197 314 -409 0
-197 314 409 0
197 -314 409 0
-197 -314 -409 0
198 314 -410 0
-198 314 410 0
198 -314 410 0
-198 -314 -410 0
199 314 -411 0
-199 314 411 0
199 -314 411 0
-199 -314 -411 0
200 314 -412 0
-200 314 412 0
200 -314 412 0
-200 -314 -412 0
201 314 -413 0
-201 314 413 0
201 -314 413 0
-201 -314 -413 0
202 314 -414 0
-202 314 414 0
202 -314 414 0
-202 -314 -414 0
203 314 -415 0
-203 314 415 0
203 -314 415 0
-203 -314 -415 0
204 314 -416 0
-204 314 416 0
204 -314 416 0
-204 -314 -416 0
205 314 -417 0
-205 314 417 0
205 -314 417 0
-205 -314 -417 0
206 314 -418 0
-206 314 418 0
206 -314 418 0
-206 -314 -418 0
207 314 -419 0
-207 314 419 0
207 -314 419 0
-207 -314 -419 0
208 314 -420 0
-208 314 420 0
208 -314 420 0
-208 -314 -420 0
1 317 -422 0
-1 317 422 0
1 -317 422 0
-1 -317 -422 0
422 314 -209 0
-422 314 209 0
422 -314 209 0
-422 -314 -209 0
314 -423 0
422 -423 0
-314 -422 423 0
317 -424 0
1 -424 0
-317 -1 424 0
-423 421 0
-424 421 0
423 424 -421 0
2 318 -426 0
-2 318 426 0
2 -318 426 0
-2 -318 -426 0
426 421 -210 0
-426 421 210 0
426 -421 210 0
-426 -421 -210 0
421 -427 0
426 -427 0
-421 -426 427 0
318 -428 0
2 -428 0
-318 -2 428 0
-427 425 0
-428 425 0
427 428 -425 0
3 319 -430 0
-3 319 430 0
3 -319 430 0
-3 -319 -430 0
430 425 -211 0
-430 425 211 0
430 -425 211 0
-430 -425 -211 0
425 -431 0
430 -431 0
-425 -430 431 0
319 -432 0
3 -432 0
-319 -3 432 0
-431 429 0
-432 429 0
431 432 -429 0
4 320 -434 0
-4 320 434 0
4 -320 434 0
-4 -320 -434 0
434 429 -212 0
-434 429 212 0
434 -429 212 0
-434 -429 -212 0
429 -435 0
434 -435 0
-429 -434 435 0
320 -436 0
4 -436 0
-320 -4 436 0
-435 433 0
-436 433 0
435 436 -433 0
5 321 -438 0
-5 321 438 0
5 -321 438 0
-5 -321 -438 0
438 433 -213 0
-438 433 213 0
438 -433 213 0
-438 -433 -213 0
433 -439 0
438 -439 0
-433 -438 439 0
321 -440 0
5 -440 0
-321 -5 440 0
-439 437 0
-440 437 0
439 440 -437 0
6 322 -442 0
-6 322 442 0
6 -322 442 0
-6 -322 -442 0
442 437 -214 0
-442 437 214 0
442 -437 214 0
-442 -437 -214 0
437 -443 0
442 -443 0
-437 -442 443 0
322 -444 0
6 -444 0
-322 -6 444 0
-443 441 0
-444 441 0
443 444 -441 0
7 323 -446 0
-7 323 446 0
7 -323 446 0
-7 -323 -446 0
446 441 -215 0
-446 441 215 0
446 -441 215 0
-446 -441 -215 0
441 -447 0
446 -447 0
-441 -446 447 0
323 -448 0
7 -448 0
-323 -7 448 0
-447 445 0
-448 445 0
447 448 -445 0
8 324 -450 0
-8 324 450 0
8 -324 450 0
-8 -324 -450 0
450 445 -216 0
-450 445 216 0
450 -445 216 0
-450 -445 -216 0
445 -451 0
450 -451 0
-445 -450 451 0
324 -452 0
8 -452 0
-324 -8 452 0
-451 449 0
-452 449 0
451 452 -449 0
9 325 -454 0
-9 325 454 0
9 -325 454 0
-9 -325 -454 0
454 449 -217 0
-454 449 217 0
454 -449 217 0
-454 -449 -217 0
449 -455 0
454 -455 0
-449 -454 455 0
325 -456 0
9 -456 0
-325 -9 456 0
-455 453 0
-456 453 0
455 456 -453 0
10 326 -458 0
-10 326 458 0
10 -326 458 0
-10 -326 -458 0
458 453 -218 0
-458 453 218 0
458 -453 218 0
-458 -453 -218 0
453 -459 0
458 -459 0
-453 -458 459 0
326 -460 0
10 -460 0
-326 -10 460 0
-459 457 0
-460 457 0
459 460 -457 0
11 327 -462 0
-11 327 462 0
11 -327 462 0
-11 -327 -462 0
462 457 -219 0
-462 457 219 0
462 -457 219 0
-462 -457 -219 0
457 -463 0
462 -463 0
-457 -462 463 0
327 -464 0
11 -464 0
-327 -11 464 0
-463 461 0
-464 461 0
463 464 -461 0
12 328 -466 0
-12 328 466 0
12 -328 466 0
-12 -328 -466 0
466 461 -220 0
-466 461 220 0
466 -461 220 0
-466 -461 -220 0
461 -467 0
466 -467 0
-461 -466 467 0
328 -468 0
12 -468 0
-328 -12 468 0
-467 465 0
-468 465 0
467 468 -465 0
13 329 -470 0
-13 329 470 0
13 -329 470 0
-13 -329 -470 0
470 465 -221 0
-470 465 221 0
470 -465 221 0
-470 -465 -221 0
465 -471 0
470 -471 0
-465 -470 471 0
329 -472 0
13 -472 0
-329 -13 472 0
-471 469 0
-472 469 0
471 472 -469 0
14 330 -474 0
-14 330 474 0
14 -330 474 0
-14 -330 -474 0
474 469 -222 0
-474 469 222 0
474 -469 222 0
-474 -469 -222 0
469 -475 0
474 -475 0
-469 -474 475 0
330 -476 0
14 -476 0
-330 -14 476 0
-475 473 0
-476 473 0
475 476 -473 0
15 331 -478 0
-15 331 478 0
15 -331 478 0
-15 -331 -478 0
478 473 -223 0
-478 473 223 0
478 -473 223 0
-478 -473 -223 0
473 -479 0
478 -479 0
-473 -478 479 0
331 -480 0
15 -480 0
-331 -15 480 0
-479 477 0
-480 477 0
479 480 -477 0
16 332 -482 0
-16 332 482 0
16 -332 482 0
-16 -332 -482 0
482 477 -224 0
-482 477 224 0
482 -477 224 0
-482 -477 -224 0
477 -483 0
482 -483 0
-477 -482 483 0
332 -484 0
16 -484 0
-332 -16 484 0
-483 481 0
-484 481 0
483 484 -481 0
17 333 -486 0
-17 333 486 0
17 -333 486 0
-17 -333 -486 0
486 481 -225 0
-486 481 225 0
486 -481 225 0
-486 -481 -225 0
481 -487 0
486 -487 0
-481 -486 487 0
333 -488 0
17 -488 0
-333 -17 488 0
-487 485 0
-488 485 0
487 488 -485 0
18 334 -490 0
-18 334 490 0
18 -334 490 0
-18 -334 -490 0
490 485 -226 0
-490 485 226 0
490 -485 226 0
-490 -485 -226 0
485 -491 0
490 -491 0
-485 -490 491 0
334 -492 0
18 -492 0
-334 -18 492 0
-491 489 0
-492 489 0
491 492 -489 0
19 335 -494 0
-19 335 494 0
19 -335 494 0
-19 -335 -494 0
494 489 -227 0
-494 489 227 0
494 -489 227 0
-494 -489 -227 0
489 -495 0
494 -495 0
-489 -494 495 0
335 -496 0
19 -496 0
-335 -19 496 0
-495 493 0
-496 493 0
495 496 -493 0
20 336 -498 0
-20 336 498 0
20 -336 498 0
-20 -336 -498 0
498 493 -228 0
-498 493 228 0
498 -493 228 0
-498 -493 -228 0
493 -499 0
498 -499 0
-493 -498 499 0
336 -500 0
20 -500 0
-336 -20 500 0
-499 497 0
-500 497 0
499 500 -497 0
21 337 -502 0
-21 337 502 0
21 -337 502 0
-21 -337 -502 0
502 497 -229 0
-502 497 229 0
502 -497 229 0
-502 -497 -229 0
497 -503 0
502 -503 0
-497 -502 503 0
337 -504 0
21 -504 0
-337 -21 504 0
-503 501 0
-504 501 0
503 504 -501 0
22 338 -506 0
-22 338 506 0
22 -338 506 0
-22 -338 -506 0
506 501 -230 0
-506 501 230 0
506 -501 230 0
-506 -501 -230 0
501 -507 0
506 -507 0
-501 -506 507 0
338 -508 0
22 -508 0
-338 -22 508 0
-507 505 0
-508 505 0
507 508 -505 0
23 339 -510 0
-23 339 510 0
23 -339 510 0
-23 -339 -510 0
510 505 -231 0
-510 505 231 0
510 -505 231 0
-510 -505 -231 0
505 -511 0
510 -511 0
-505 -510 511 0
339 -512 0
23 -512 0
-339 -23 512 0
-511 509 0
-512 509 0
511 512 -509 0
24 340 -514 0
-24 340 514 0
24 -340 514 0
-24 -340 -514 0
514 509 -232 0
-514 509 232 0
514 -509 232 0
-514 -509 -232 0
509 -515 0
514 -515 0
-509 -514 515 0
340 -516 0
24 -516 0
-340 -24 516 0
-515 513 0
-516 513 0
515 516 -513 0
25 341 -518 0
-25 341 518 0
25 -341 518 0
-25 -341 -518 0
518 513 -233 0
-518 513 233 0
518 -513 233 0
-518 -513 -233 0
513 -519 0
518 -519 0
-513 -518 519 0
341 -520 0
25 -520 0
-341 -25 520 0
-519 517 0
-520 517 0
519 520 -517 0
26 342 -522 0
-26 342 522 0
26 -342 522 0
-26 -342 -522 0
522 517 -234 0
-522 517 234 0
522 -517 234 0
-522 -517 -234 0
517 -523 0
522 -523 0
-517 -522 523 0
342 -524 0
26 -524 0
-342 -26 524 0
-523 521 0
-524 521 0
523 524 -521 0
27 343 -526 0
-27 343 526 0
27 -343 526 0
-27 -343 -526 0
526 521 -235 0
-526 521 235 0
526 -521 235 0
-526 -521 -235 0
521 -527 0
526 -527 0
-521 -526 527 0
343 -528 0
27 -528 0
-343 -27 528 0
-527 525 0
-528 525 0
527 528 -525 0
28 344 -530 0
-28 344 530 0
28 -344 530 0
-28 -344 -530 0
530 525 -236 0
-530 525 236 0
530 -525 236 0
-530 -525 -236 0
525 -531 0
530 -531 0
-525 -530 531 0
344 -532 0
28 -532 0
-344 -28 532 0
-531 529 0
-532 529 0
531 532 -529 0
29 345 -534 0
-29 345 534 0
29 -345 534 0
-29 -345 -534 0
534 529 -237 0
-534 529 237 0
534 -529 237 0
-534 -529 -237 0
529 -535 0
534 -535 0
-529 -534 535 0
345 -536 0
29 -536 0
-345 -29 536 0
-535 533 0
-536 533 0
535 536 -533 0
30 346 -538 0
-30 346 538 0
30 -346 538 0
-30 -346 -538 0
538 533 -238 0
-538 533 238 0
538 -533 238 0
-538 -533 -238 0
533 -539 0
538 -539 0
-533 -538 539 0
346 -540 0
30 -540 0
-346 -30 540 0
-539 537 0
-540 537 0
539 540 -537 0
31 347 -542 0
-31 347 542 0
31 -347 542 0
-31 -347 -542 0
542 537 -239 0
-542 537 239 0
542 -537 239 0
-542 -537 -239 0
537 -543 0
542 -543 0
-537 -542 543 0
347 -544 0
31 -544 0
-347 -31 544 0
-543 541 0
-544 541 0
543 544 -541 0
32 348 -546 0
-32 348 546 0
32 -348 546 0
-32 -348 -546 0
546 541 -240 0
-546 541 240 0
546 -541 240 0
-546 -541 -240 0
541 -547 0
546 -547 0
-541 -546 547 0
348 -548 0
32 -548 0
-348 -32 548 0
-547 545 0
-548 545 0
547 548 -545 0
33 349 -550 0
-33 349 550 0
33 -349 550 0
-33 -349 -550 0
550 545 -241 0
-550 545 241 0
550 -545 241 0
-550 -545 -241 0
545 -551 0
550 -551 0
-545 -550 551 0
349 -552 0
33 -552 0
-349 -33 552 0
-551 549 0
-552 549 0
551 552 -549 0
34 350 -554 0
-34 350 554 0
34 -350 554 0
-34 -350 -554 0
554 549 -242 0
-554 549 242 0
554 -549 242 0
-554 -549 -242 0
549 -555 0
554 -555 0
-549 -554 555 0
350 -556 0
34 -556 0
-350 -34 556 0
-555 553 0
-556 553 0
555 556 -553 0
35 351 -558 0
-35 351 558 0
35 -351 558 0
-35 -351 -558 0
558 553 -243 0
-558 553 243 0
558 -553 243 0
-558 -553 -243 0
553 -559 0
558 -559 0
-553 -558 559 0
351 -560 0
35 -560 0
-351 -35 560 0
-559 557 0
-560 557 0
559 560 -557 0
36 352 -562 0
-36 352 562 0
36 -352 562 0
-36 -352 -562 0
562 557 -244 0
-562 557 244 0
562 -557 244 0
-562 -557 -244 0
557 -563 0
562 -563 0
-557 -562 563 0
352 -564 0
36 -564 0
-352 -36 564 0
-563 561 0
-564 561 0
563 564 -561 0
37 353 -566 0
-37 353 566 0
37 -353 566 0
-37 -353 -566 0
566 561 -245 0
-566 561 245 0
566 -561 245 0
-566 -561 -245 0
561 -567 0
566 -567 0
-561 -566 567 0
353 -568 0
37 -568 0
-353 -37 568 0
-567 565 0
-568 565 0
567 568 -565 0
38 354 -570 0
-38 354 570 0
38 -354 570 0
-38 -354 -570 0
570 565 -246 0
-570 565 246 0
570 -565 246 0
-570 -565 -246 0
565 -571 0
570 -571 0
-565 -570 571 0
354 -572 0
38 -572 0
-354 -38 572 0
-571 569 0
-572 569 0
571 572 -569 0
39 355 -574 0
-39 355 574 0
39 -355 574 0
-39 -355 -574 0
574 569 -247 0
-574 569 247 0
574 -569 247 0
-574 -569 -247 0
569 -575 0
574 -575 0
-569 -574 575 0
355 -576 0
39 -576 0
-355 -39 576 0
-575 573 0
-576 573 0
575 576 -573 0
40 356 -578 0
-40 356 578 0
40 -356 578 0
-40 -356 -578 0
578 573 -248 0
-578 573 248 0
578 -573 248 0
-578 -573 -248 0
573 -579 0
578 -579 0
-573 -578 579 0
356 -580 0
40 -580 0
-356 -40 580 0
-579 577 0
-580 577 0
579 580 -577 0
41 357 -582 0
-41 357 582 0
41 -357 582 0
-41 -357 -582 0
582 577 -249 0
-582 577 249 0
582 -577 249 0
-582 -577 -249 0
577 -583 0
582 -583 0
-577 -582 583 0
357 -584 0
41 -584 0
-357 -41 584 0
-583 581 0
-584 581 0
583 584 -581 0
42 358 -586 0
-42 358 586 0
42 -358 586 0
-42 -358 -586 0
586 581 -250 0
-586 581 250 0
586 -581 250 0
-586 -581 -250 0
581 -587 0
586 -587 0
-581 -586 587 0
358 -588 0
42 -588 0
-358 -42 588 0
-587 585 0
-588 585 0
587 588 -585 0
43 359 -590 0
-43 359 590 0
43 -359 590 0
-43 -359 -590 0
590 585 -251 0
-590 585 251 0
590 -585 251 0
-590 -585 -251 0
585 -591 0
590 -591 0
-585 -590 591 0
359 -592 0
43 -592 0
-359 -43 592 0
-591 589 0
-592 589 0
591 592 -589 0
44 360 -594 0
-44 360 594 0
44 -360 594 0
-44 -360 -594 0
594 589 -252 0
-594 589 252 0
594 -589 252 0
-594 -589 -252 0
589 -595 0
594 -595 0
-589 -594 595 0
360 -596 0
44 -596 0
-360 -44 596 0
-595 593 0
-596 593 0
595 596 -593 0
45 361 -598 0
-45 361 598 0
45 -361 598 0
-45 -361 -598 0
598 593 -253 0
-598 593 253 0
598 -593 253 0
-598 -593 -253 0
593 -599 0
598 -599 0
-593 -598 599 0
361 -600 0
45 -600 0
-361 -45 600 0
-599 597 0
-600 597 0
599 600 -597 0
46 362 -602 0
-46 362 602 0
46 -362 602 0
-46 -362 -602 0
602 597 -254 0
-602 597 254 0
602 -597 254 0
-602 -597 -254 0
597 -603 0
602 -603 0
-597 -602 603 0
362 -604 0
46 -604 0
-362 -46 604 0
-603 601 0
-604 601 0
603 604 -601 0
47 363 -606 0
-47 363 606 0
47 -363 606 0
-47 -363 -606 0
606 601 -255 0
-606 601 255 0
606 -601 255 0
-606 -601 -255 0
601 -607 0
606 -607 0
-601 -606 607 0
363 -608 0
47 -608 0
-363 -47 608 0
-607 605 0
-608 605 0
607 608 -605 0
48 364 -610 0
-48 364 610 0
48 -364 610 0
-48 -364 -610 0
610 605 -256 0
-610 605 256 0
610 -605 256 0
-610 -605 -256 0
605 -611 0
610 -611 0
-605 -610 611 0
364 -612 0
48 -612 0
-364 -48 612 0
-611 609 0
-612 609 0
611 612 -609 0
49 365 -614 0
-49 365 614 0
49 -365 614 0
-49 -365 -614 0
614 609 -257 0
-614 609 257 0
614 -609 257 0
-614 -609 -257 0
609 -615 0
614 -615 0
-609 -614 615 0
365 -616 0
49 -616 0
-365 -49 616 0
-615 613 0
-616 613 0
615 616 -613 0
50 366 -618 0
-50 366 618 0
50 -366 618 0
-50 -366 -618 0
618 613 -258 0
-618 613 258 0
618 -613 258 0
-618 -613 -258 0
613 -619 0
618 -619 0
-613 -618 619 0
366 -620 0
50 -620 0
-366 -50 620 0
-619 617 0
-620 617 0
619 620 -617 0
51 367 -622 0
-51 367 622 0
51 -367 622 0
-51 -367 -622 0
622 617 -259 0
-622 617 259 0
622 -617 259 0
-622 -617 -259 0
617 -623 0
622 -623 0
-617 -622 623 0
367 -624 0
51 -624 0
-367 -51 624 0
-623 621 0
-624 621 0
623 624 -621 0
52 368 -626 0
-52 368 626 0
52 -368 626 0
-52 -368 -626 0
626 621 -260 0
-626 621 260 0
626 -621 260 0
-626 -621 -260 0
621 -627 0
626 -627 0
-621 -626 627 0
368 -628 0
52 -628 0
-368 -52 628 0
-627 625 0
-628 625 0
627 628 -625 0
53 369 -630 0
-53 369 630 0
53 -369 630 0
-53 -369 -630 0
630 625 -261 0
-630 625 261 0
630 -625 261 0
-630 -625 -261 0
625 -631 0
630 -631 0
-625 -630 631 0
369 -632 0
53 -632 0
-369 -53 632 0
-631 629 0
-632 629 0
631 632 -629 0
54 370 -634 0
-54 370 634 0
54 -370 634 0
-54 -370 -634 0
634 629 -262 0
-634 629 262 0
634 -629 262 0
-634 -629 -262 0
629 -635 0
634 -635 0
-629 -634 635 0
370 -636 0
54 -636 0
-370 -54 636 0
-635 633 0
-636 633 0
635 636 -633 0
55 371 -638 0
-55 371 638 0
55 -371 638 0
-55 -371 -638 0
638 633 -263 0
-638 633 263 0
638 -633 263 0
-638 -633 -263 0
633 -639 0
638 -639 0
-633 -638 639 0
371 -640 0
55 -640 0
-371 -55 640 0
-639 637 0
-640 637 0
639 640 -637 0
56 372 -642 0
-56 372 642 0
56 -372 642 0
-56 -372 -642 0
642 637 -264 0
-642 637 264 0
642 -637 264 0
-642 -637 -264 0
637 -643 0
642 -643 0
-637 -642 643 0
372 -644 0
56 -644 0
-372 -56 644 0
-643 641 0
-644 641 0
643 644 -641 0
57 373 -646 0
-57 373 646 0
57 -373 646 0
-57 -373 -646 0
646 641 -265 0
-646 641 265 0
646 -641 265 0
-646 -641 -265 0
641 -647 0
646 -647 0
-641 -646 647 0
373 -648 0
57 -648 0
-373 -57 648 0
-647 645 0
-648 645 0
647 648 -645 0
58 374 -650 0
-58 374 650 0
58 -374 650 0
-58 -374 -650 0
650 645 -266 0
-650 645 266 0
650 -645 266 0
-650 -645 -266 0
645 -651 0
650 -651 0
-645 -650 651 0
374 -652 0
58 -652 0
-374 -58 652 0
-651 649 0
-652 649 0
651 652 -649 0
59 375 -654 0
-59 375 654 0
59 -375 654 0
-59 -375 -654 0
654 649 -267 0
-654 649 267 0
654 -649 267 0
-654 -649 -267 0
649 -655 0
654 -655 0
-649 -654 655 0
375 -656 0
59 -656 0
-375 -59 656 0
-655 653 0
-656 653 0
655 656 -653 0
60 376 -658 0
-60 376 658 0
60 -376 658 0
-60 -376 -658 0
658 653 -268 0
-658 653 268 0
658 -653 268 0
-658 -653 -268 0
653 -659 0
658 -659 0
-653 -658 659 0
376 -660 0
60 -660 0
-376 -60 660 0
-659 657 0
-660 657 0
659 660 -657 0
61 377 -662 0
-61 377 662 0
61 -377 662 0
-61 -377 -662 0
662 657 -269 0
-662 657 269 0
662 -657 269 0
-662 -657 -269 0
657 -663 0
662 -663 0
-657 -662 663 0
377 -664 0
61 -664 0
-377 -61 664 0
-663 661 0
-664 661 0
663 664 -661 0
62 378 -666 0
-62 378 666 0
62 -378 666 0
-62 -378 -666 0
666 661 -270 0
-666 661 270 0
666 -661 270 0
-666 -661 -270 0
661 -667 0
666 -667 0
-661 -666 667 0
378 -668 0
62 -668 0
-378 -62 668 0
-667 665 0
-668 665 0
667 668 -665 0
63 379 -670 0
-63 379 670 0
63 -379 670 0
-63 -379 -670 0
670 665 -271 0
-670 665 271 0
670 -665 271 0
-670 -665 -271 0
665 -671 0
670 -671 0
-665 -670 671 0
379 -672 0
63 -672 0
-379 -63 672 0
-671 669 0
-672 669 0
671 672 -669 0
64 380 -674 0
-64 380 674 0
64 -380 674 0
-64 -380 -674 0
674 669 -272 0
-674 669 272 0
674 -669 272 0
-674 -669 -272 0
669 -675 0
674 -675 0
-669 -674 675 0
380 -676 0
64 -676 0
-380 -64 676 0
-675 673 0
-676 673 0
675 676 -673 0
65 381 -678 0
-65 381 678 0
65 -381 678 0
-65 -381 -678 0
678 673 -273 0
-678 673 273 0
678 -673 273 0
-678 -673 -273 0
673 -679 0
678 -679 0
-673 -678 679 0
381 -680 0
65 -680 0
-381 -65 680 0
-679 677 0
-680 677 0
679 680 -677 0
66 382 -682 0
-66 382 682 0
66 -382 682 0
-66 -382 -682 0
682 677 -274 0
-682 677 274 0
682 -677 274 0
-682 -677 -274 0
677 -683 0
682 -683 0
-677 -682 683 0
382 -684 0
66 -684 0
-382 -66 684 0
-683 681 0
-684 681 0
683 684 -681 0
67 383 -686 0
-67 383 686 0
67 -383 686 0
-67 -383 -686 0
686 681 -275 0
-686 681 275 0
686 -681 275 0
-686 -681 -275 0
681 -687 0
686 -687 0
-681 -686 687 0
383 -688 0
67 -688 0
-383 -67 688 0
-687 685 0
-688 685 0
687 688 -685 0
68 384 -690 0
-68 384 690 0
68 -384 690 0
-68 -384 -690 0
690 685 -276 0
-690 685 276 0
690 -685 276 0
-690 -685 -276 0
685 -691 0
690 -691 0
-685 -690 691 0
384 -692 0
68 -692 0
-384 -68 692 0
-691 689 0
-692 689 0
691 692 -689 0
69 385 -694 0
-69 385 694 0
69 -385 694 0
-69 -385 -694 0
694 689 -277 0
-694 689 277 0
694 -689 277 0
-694 -689 -277 0
689 -695 0
694 -695 0
-689 -694 695 0
385 -696 0
69 -696 0
-385 -69 696 0
-695 693 0
-696 693 0
695 696 -693 0
70 386 -698 0
-70 386 698 0
70 -386 698 0
-70 -386 -698 0
698 693 -278 0
-698 693 278 0
698 -693 278 0
-698 -693 -278 0
693 -699 0
698 -699 0
-693 -698 699 0
386 -700 0
70 -700 0
-386 -70 700 0
-699 697 0
-700 697 0
699 700 -697 0
71 387 -702 0
-71 387 702 0
71 -387 702 0
-71 -387 -702 0
702 697 -279 0
-702 697 279 0
702 -697 279 0
-702 -697 -279 0
697 -703 0
702 -703 0
-697 -702 703 0
387 -704 0
71 -704 0
-387 -71 704 0
-703 701 0
-704 701 0
703 704 -701 0
72 388 -706 0
-72 388 706 0
72 -388 706 0
-72 -388 -706 0
706 701 -280 0
-706 701 280 0
706 -701 280 0
-706 -701 -280 0
701 -707 0
706 -707 0
-701 -706 707 0
388 -708 0
72 -708 0
-388 -72 708 0
-707 705 0
-708 705 0
707 708 -705 0
73 389 -710 0
-73 389 710 0
73 -389 710 0
-73 -389 -710 0
710 705 -281 0
-710 705 281 0
710 -705 281 0
-710 -705 -281 0
705 -711 0
710 -711 0
-705 -710 711 0
389 -712 0
73 -712 0
-389 -73 712 0
-711 709 0
-712 709 0
711 712 -709 0
74 390 -714 0
-74 390 714 0
74 -390 714 0
-74 -390 -714 0
714 709 -282 0
-714 709 282 0
714 -709 282 0
-714 -709 -282 0
709 -715 0
714 -715 0
-709 -714 715 0
390 -716 0
74 -716 0
-390 -74 716 0
-715 713 0
-716 713 0
715 716 -713 0
75 391 -718 0
-75 391 718 0
75 -391 718 0
-75 -391 -718 0
718 713 -283 0
-718 713 283 0
718 -713 283 0
-718 -713 -283 0
713 -719 0
718 -719 0
-713 -718 719 0
391 -720 0
75 -720 0
-391 -75 720 0
-719 717 0
-720 717 0
719 720 -717 0
76 392 -722 0
-76 392 722 0
76 -392 722 0
-76 -392 -722 0
722 717 -284 0
-722 717 284 0
722 -717 284 0
-722 -717 -284 0
717 -723 0
722 -723 0
-717 -722 723 0
392 -724 0
76 -724 0
-392 -76 724 0
-723 721 0
-724 721 0
723 724 -721 0
77 393 -726 0
-77 393 726 0
77 -393 726 0
-77 -393 -726 0
726 721 -285 0
-726 721 285 0
726 -721 285 0
-726 -721 -285 0
721 -727 0
726 -727 0
-721 -726 727 0
393 -728 0
77 -728 0
-393 -77 728 0
-727 725 0
-728 725 0
727 728 -725 0
78 394 -730 0
-78 394 730 0
78 -394 730 0
-78 -394 -730 0
730 725 -286 0
-730 725 286 0
730 -725 286 0
-730 -725 -286 0
725 -731 0
730 -731 0
-725 -730 731 0
394 -732 0
78 -732 0
-394 -78 732 0
-731 729 0
-732 729 0
731 732 -729 0
79 395 -734 0
-79 395 734 0
79 -395 734 0
-79 -395 -734 0
734 729 -287 0
-734 729 287 0
734 -729 287 0
-734 -729 -287 0
729 -735 0
734 -735 0
-729 -734 735 0
395 -736 0
79 -736 0
-395 -79 736 0
-735 733 0
-736 733 0
735 736 -733 0
80 396 -738 0
-80 396 738 0
80 -396 738 0
-80 -396 -738 0
738 733 -288 0
-738 733 288 0
738 -733 288 0
-738 -733 -288 0
733 -739 0
738 -739 0
-733 -738 739 0
396 -740 0
80 -740 0
-396 -80 740 0
-739 737 0
-740 737 0
739 740 -737 0
81 397 -742 0
-81 397 742 0
81 -397 742 0
-81 -397 -742 0
742 737 -289 0
-742 737 289 0
742 -737 289 0
-742 -737 -289 0
737 -743 0
742 -743 0
-737 -742 743 0
397 -744 0
81 -744 0
-397 -81 744 0
-743 741 0
-744 741 0
743 744 -741 0
82 398 -746 0
-82 398 746 0
82 -398 746 0
-82 -398 -746 0
746 741 -290 0
-746 741 290 0
746 -741 290 0
-746 -741 -290 0
741 -747 0
746 -747 0
-741 -746 747 0
398 -748 0
82 -748 0
-398 -82 748 0
-747 745 0
-748 745 0
747 748 -745 0
83 399 -750 0
-83 399 750 0
83 -399 750 0
-83 -399 -750 0
750 745 -291 0
-750 745 291 0
750 -745 291 0
-750 -745 -291 0
745 -751 0
750 -751 0
-745 -750 751 0
399 -752 0
83 -752 0
-399 -83 752 0
-751 749 0
-752 749 0
751 752 -749 0
84 400 -754 0
-84 400 754 0
84 -400 754 0
-84 -400 -754 0
754 749 -292 0
-754 749 292 0
754 -749 292 0
-754 -749 -292 0
749 -755 0
754 -755 0
-749 -754 755 0
400 -756 0
84 -756 0
-400 -84 756 0
-755 753 0
-756 753 0
755 756 -753 0
85 401 -758 0
-85 401 758 0
85 -401 758 0
-85 -401 -758 0
758 753 -293 0
-758 753 293 0
758 -753 293 0
-758 -753 -293 0
753 -759 0
758 -759 0
-753 -758 759 0
401 -760 0
85 -760 0
-401 -85 760 0
-759 757 0
-760 757 0
759 760 -757 0
86 402 -762 0
-86 402 762 0
86 -402 762 0
-86 -402 -762 0
762 757 -294 0
-762 757 294 0
762 -757 294 0
-762 -757 -294 0
757 -763 0
762 -763 0
-757 -762 763 0
402 -764 0
86 -764 0
-402 -86 764 0
-763 761 0
-764 761 0
763 764 -761 0
87 403 -766 0
-87 403 766 0
87 -403 766 0
-87 -403 -766 0
766 761 -295 0
-766 761 295 0
766 -761 295 0
-766 -761 -295 0
761 -767 0
766 -767 0
-761 -766 767 0
403 -768 0
87 -768 0
-403 -87 768 0
-767 765 0
-768 765 0
767 768 -765 0
88 404 -770 0
-88 404 770 0
88 -404 770 0
-88 -404 -770 0
770 765 -296 0
-770 765 296 0
770 -765 296 0
-770 -765 -296 0
765 -771 0
770 -771 0
-765 -770 771 0
404 -772 0
88 -772 0
-404 -88 772 0
-771 769 0
-772 769 0
771 772 -769 0
89 405 -774 0
-89 405 774 0
89 -405 774 0
-89 -405 -774 0
774 769 -297 0
-774 769 297 0
774 -769 297 0
-774 -769 -297 0
769 -775 0
774 -775 0
-769 -774 775 0
405 -776 0
89 -776 0
-405 -89 776 0
-775 773 0
-776 773 0
775 776 -773 0
90 406 -778 0
-90 406 778 0
90 -406 778 0
-90 -406 -778 0
778 773 -298 0
-778 773 298 0
778 -773 298 0
-778 -773 -298 0
773 -779 0
778 -779 0
-773 -778 779 0
406 -780 0
90 -780 0
-406 -90 780 0
-779 777 0
-780 777 0
779 780 -777 0
91 407 -782 0
-91 407 782 0
91 -407 782 0
-91 -407 -782 0
782 777 -299 0
-782 777 299 0
782 -777 299 0
-782 -777 -299 0
777 -783 0
782 -783 0
-777 -782 783 0
407 -784 0
91 -784 0
-407 -91 784 0
-783 781 0
-784 781 0
783 784 -781 0
92 408 -786 0
-92 408 786 0
92 -408 786 0
-92 -408 -786 0
786 781 -300 0
-786 781 300 0
786 -781 300 0
-786 -781 -300 0
781 -787 0
786 -787 0
-781 -786 787 0
408 -788 0
92 -788 0
-408 -92 788 0
-787 785 0
-788 785 0
787 788 -785 0
93 409 -790 0
-93 409 790 0
93 -409 790 0
-93 -409 -790 0
790 785 -301 0
-790 785 301 0
790 -785 301 0
-790 -785 -301 0
785 -791 0
790 -791 0
-785 -790 791 0
409 -792 0
93 -792 0
-409 -93 792 0
-791 789 0
-792 789 0
791 792 -789 0
94 410 -794 0
-94 410 794 0
94 -410 794 0
-94 -410 -794 0
794 789 -302 0
-794 789 302 0
794 -789 302 0
-794 -789 -302 0
789 -795 0
794 -795 0
-789 -794 795 0
410 -796 0
94 -796 0
-410 -94 796 0
-795 793 0
-796 793 0
795 796 -793 0
95 411 -798 0
-95 411 798 0
95 -411 798 0
-95 -411 -798 0
798 793 -303 0
-798 793 303 0
798 -793 303 0
-798 -793 -303 0
793 -799 0
798 -799 0
-793 -798 799 0
411 -800 0
95 -800 0
-411 -95 800 0
-799 797 0
-800 797 0
799 800 -797 0
96 412 -802 0
-96 412 802 0
96 -412 802 0
-96 -412 -802 0
802 797 -304 0
-802 797 304 0
802 -797 304 0
-802 -797 -304 0
797 -803 0
802 -803 0
-797 -802 803 0
412 -804 0
96 -804 0
-412 -96 804 0
-803 801 0
-804 801 0
803 804 -801 0
97 413 -806 0
-97 413 806 0
97 -413 806 0
-97 -413 -806 0
806 801 -305 0
-806 801 305 0
806 -801 305 0
-806 -801 -305 0
801 -807 0
806 -807 0
-801 -806 807 0
413 -808 0
97 -808 0
-413 -97 808 0
-807 805 0
-808 805 0
807 808 -805 0
98 414 -810 0
-98 414 810 0
98 -414 810 0
-98 -414 -810 0
810 805 -306 0
-810 805 306 0
810 -805 306 0
-810 -805 -306 0
805 -811 0
810 -811 0
-805 -810 811 0
414 -812 0
98 -812 0
-414 -98 812 0
-811 809 0
-812 809 0
811 812 -809 0
99 415 -814 0
-99 415 814 0
99 -415 814 0
-99 -415 -814 0
814 809 -307 0
-814 809 307 0
814 -809 307 0
-814 -809 -307 0
809 -815 0
814 -815 0
-809 -814 815 0
415 -816 0
99 -816 0
-415 -99 816 0
-815 813 0
-816 813 0
815 816 -813 0
100 416 -818 0
-100 416 818 0
100 -416 818 0
-100 -416 -818 0
818 813 -308 0
-818 813 308 0
818 -813 308 0
-818 -813 -308 0
813 -819 0
818 -819 0
-813 -818 819 0
416 -820 0
100 -820 0
-416 -100 820 0
-819 817 0
-820 817 0
819 820 -817 0
101 417 -822 0
-101 417 822 0
101 -417 822 0
-101 -417 -822 0
822 817 -309 0
-822 817 309 0
822 -817 309 0
-822 -817 -309 0
817 -823 0
822 -823 0
-817 -822 823 0
417 -824 0
101 -824 0
-417 -101 824 0
-823 821 0
-824 821 0
823 824 -821 0
102 418 -826 0
-102 418 826 0
102 -418 826 0
-102 -418 -826 0
826 821 -310 0
-826 821 310 0
826 -821 310 0
-826 -821 -310 0
821 -827 0
826 -827 0
-821 -826 827 0
418 -828 0
102 -828 0
-418 -102 828 0
-827 825 0
-828 825 0
827 828 -825 0
103 419 -830 0
-103 419 830 0
103 -419 830 0
-103 -419 -830 0
830 825 -311 0
-830 825 311 0
830 -825 311 0
-830 -825 -311 0
825 -831 0
830 -831 0
-825 -830 831 0
419 -832 0
103 -832 0
-419 -103 832 0
-831 829 0
-832 829 0
831 832 -829 0
104 420 -834 0
-104 420 834 0
104 -420 834 0
-104 -420 -834 0
834 829 -312 0
-834 829 312 0
834 -829 312 0
-834 -829 -312 0
829 -835 0
834 -835 0
-829 -834 835 0
420 -836 0
104 -836 0
-420 -104 836 0
-835 833 0
-836 833 0
835 836 -833 0
833 314 -313 0
-833 314 313 0
833 -314 313 0
-833 -314 -313 0
